JulietBench/Juliet_Based_Patch_Bench/linux/CWE-189-Numeric-Errors/CVE_2012_0038_093019cf1b18dd31b2c3b77acce4e000e2cbc9ce/Resultxfs_acl_from_disk_SnippetEQ.smt2
; benchmark generated from python API
(set-info :status unknown)
(declare-fun R () (_ BitVec 32))
(declare-fun rdi () (_ BitVec 64))
(assert
 (let (($x72 (= (_ bv0 32) R)))
 (let ((?x6 ((_ extract 31 0) rdi)))
 (let (($x46 (bvsge (_ bv25 32) ?x6)))
 (let (($x76 (and $x46 $x72)))
 (let (($x67 (= (_ bv4294967161 32) R)))
 (let (($x58 (bvslt (_ bv25 32) ?x6)))
 (let (($x75 (and $x58 $x67)))
 (let (($x77 (or $x75 $x76)))
 (let (($x11 (bvule ?x6 (_ bv25 32))))
 (let (($x73 (and $x11 $x72)))
 (let (($x43 (bvugt ?x6 (_ bv25 32))))
 (let (($x71 (and $x43 $x67)))
 (let (($x74 (or $x71 $x73)))
 (and $x74 $x77)))))))))))))))
(check-sat)
